data;
set M:= 1 2 3 4 5 6 7 8 9 10 11 12;	
param:		SM:=

	1		4037.02		
	2		4202.61		
	3		4270.62		
	4		4333.57		
	5		4319.97		
	6		4286.19		
	7		4236.89		
	8		4177.71			
	9		4168.07		
	10		4074.36		
	11		4021.15		
	12		4019.94;
